# Executing instances/MDG-a/MDG-a_32_n2000_m200.txt|none|1

==================== CONFIGURAÇÃO DO SOLVER ====================
[MDPModel] Instance: MDG-a_32_n2000_m200
[MDPModel] Configuração: none
[MDPModel] Execução: 1
[MDPModel] n=2000, m=200
[MDPModel] ✓ Configurações de preservação de estratégias aplicadas
Version identifier: 22.1.1.0 | 2022-11-28 | 9160aff4d
CPXPARAM_ClockType                               1
CPXPARAM_Threads                                 1
CPXPARAM_MIP_Strategy_File                       3
CPXPARAM_TimeLimit                               600
CPXPARAM_WorkMem                                 0
CPXPARAM_MIP_Tolerances_Integrality              1.0000000000000001e-09
CPXPARAM_WorkDir                                 "/tmp/cplex_workdir_1755488000782418961"
Tried aggregator 1 time.
MIP Presolve eliminated 3998000 rows and 4000001 columns.
MIP Presolve modified 1780 coefficients.
Reduced MIP has 3999 rows, 3999 columns, and 1825831 nonzeros.
Reduced MIP has 2000 binaries, 0 generals, 0 SOSs, and 0 indicators.
Presolve time = 6.23 sec. (3452.72 ticks)
Found incumbent of value 0.000000 after 7.35 sec. (3926.09 ticks)
Probing time = 0.03 sec. (17.26 ticks)
Tried aggregator 1 time.
Detecting symmetries...
Reduced MIP has 3999 rows, 3999 columns, and 1825831 nonzeros.
Reduced MIP has 2000 binaries, 1999 generals, 0 SOSs, and 0 indicators.
Presolve time = 1.61 sec. (648.25 ticks)
Probing time = 0.04 sec. (17.21 ticks)
MIP emphasis: balance optimality and feasibility.
MIP search method: dynamic search.
Parallel mode: none, using 1 thread.
Root relaxation solution time = 54.33 sec. (37471.90 ticks)

        Nodes                                         Cuts/
   Node  Left     Objective  IInf  Best Integer    Best Bound    ItCnt     Gap

*     0+    0                            0.0000  3354486.0000              --- 
      0     0   385952.2560  3961        0.0000   385952.2560     8731     --- 
      0     0   385931.1658  3979        0.0000     Cuts: 256     8790     --- 
      0     0   385911.3342  3999        0.0000      Cuts: 94     8824     --- 
      0     0   385911.3176  3999        0.0000    MIRcuts: 1     8825     --- 
Heuristic still looking.
Heuristic still looking.
Heuristic still looking.
Detecting symmetries...
      0     2   385911.3176  3999        0.0000   385887.4041     8825     --- 
Elapsed time = 467.96 sec. (507874.93 ticks, tree = 0.01 MB, solutions = 1)
      2     4   384690.8211  3998        0.0000   385858.1392     8878     --- 
      3     5   385858.1392  3995        0.0000   385834.1057     8879     --- 
      4     6   384673.8627  3996        0.0000   385834.1057     8925     --- 
      5     7   385829.2665  3993        0.0000   385827.4323     8929     --- 
      6     8   384602.0737  3994        0.0000   385827.4323     8980     --- 
      7     9   385805.6510  3991        0.0000   385827.4323     8981     --- 
      9    11   385754.3502  3987        0.0000   385827.4323     8985     --- 
     10    12   384530.1345  3988        0.0000   385827.4323     9026     --- 
     11    13   385731.1764  3985        0.0000   385827.4323     9027     --- 
Began writing nodes to disk (directory /tmp/cplex_workdir_1755488000782418961/cpx2ZdNVe created)
     16    18   384416.7413  3978        0.0000   385827.4323     9057     --- 
Elapsed time = 536.28 sec. (633256.96 ticks, tree = 0.07 MB, solutions = 1)
Nodefile size = 0.01 MB (0.00 MB after compression)
     17    19   385622.7313  3975        0.0000   385827.4323     9058     --- 
     18    20   384438.6079  3976        0.0000   385827.4323     9109     --- 
     19    21   385597.4442  3973        0.0000   385827.4323     9110     --- 
     20    22   384405.2539  3974        0.0000   385827.4323     9145     --- 
     21    23   385572.9182  3971        0.0000   385827.4323     9146     --- 

Mixed integer rounding cuts applied:  83
Gomory fractional cuts applied:  2

Root node processing (before b&c):
  Real time             =  468.26 sec. (507891.45 ticks)
Sequential b&c:
  Real time             =  132.14 sec. (240155.28 ticks)
                          ------------
Total (root+branch&cut) =  600.40 sec. (748046.73 ticks)
----- END ----
LB     : 385827
UB     : 0
NODES  : 27
GAP OPT (%)  : 0.00%
------------------
INSTANCE_NAME      : MDG-a_32_n2000_m200
N_VALUE            : 2000
M_VALUE            : 200
CONFIG_VALUE       : none
EXEC_NUMBER        : 1
TIME               : 608.74
IS_SOLVED          : 1
HEURISTIC_SOLUTION : 113908
SOLUTION           : 0
HEURISTIC GAP (%)  : -0.27%
------------------
SOLUTION ELEMENTS: 0 1 2 3 4 5 6 7 8 9 10 11 12 13 14 15 16 17 18 19 20 21 22 23 24 25 26 27 28 29 30 31 32 33 34 35 36 37 38 39 40 41 42 43 44 45 46 47 48 49 50 51 52 53 54 55 56 57 58 59 60 61 62 63 64 65 66 67 68 69 70 71 72 73 74 75 76 77 78 79 80 81 82 83 84 85 86 87 88 89 90 91 92 93 94 95 96 97 98 99 100 101 102 103 104 105 106 107 108 109 110 111 112 113 114 115 116 117 118 119 120 121 122 123 124 125 126 127 128 129 130 131 132 133 134 135 136 137 138 139 140 141 142 143 144 145 146 147 148 149 150 151 152 153 154 155 156 157 158 159 160 161 162 163 164 165 166 167 168 169 170 171 172 173 174 175 176 177 178 179 180 181 182 183 184 185 186 187 188 189 190 191 192 193 194 195 196 197 198 199 
